Route #1: 59 60 82
Route #2: 1 70 54
Route #3: 75 93
Route #4: 39 10 18
Route #5: 89 98 99 62 71
Route #6: 35 46 31
Route #7: 3 77 63
Route #8: 44 67 88 40
Route #9: 14 49 6 37 87
Route #10: 15 22 41 20
Route #11: 38 47 26 48 96 64 34
Route #12: 92 9 86
Route #13: 8 17
Route #14: 83 51 81
Route #15: 79 11 85 30
Route #16: 32 33 53 73 95 24
Route #17: 100 61 23
Route #18: 58 12 5
Route #19: 57 72 36 29 43 45 2 7
Route #20: 27 97 19
Route #21: 21 56 94 80
Route #22: 69 16 55 76
Route #23: 25 65 78 42 28
Route #24: 50 91 52
Route #25: 4 13 74
Route #26: 66 84 90 68
Cost 27591.0000
Time 16.0003